\ LP format - for model browsing. Use MPS format to capture full model detail.
Minimize
  2129 x[1,2] + 1657 x[1,3] + 1363 x[1,4] + 283 x[1,5] + 2615 x[1,6]
   + 2166 x[1,7] + 1148 x[1,8] + 2395 x[1,9] + 1043 x[1,10] + 1537 x[1,11]
   + 1012 x[1,12] + 2140 x[2,1] + 3072 x[2,3] + 1351 x[2,4] + 2390 x[2,5]
   + 1112 x[2,6] + 2150 x[2,7] + 1479 x[2,8] + 1873 x[2,9] + 2822 x[2,10]
   + 1948 x[2,11] + 2818 x[2,12] + 1694 x[3,1] + 3042 x[3,2] + 2733 x[3,4]
   + 1554 x[3,5] + 3822 x[3,6] + 1505 x[3,7] + 2611 x[3,8] + 2076 x[3,9]
   + 733 x[3,10] + 1240 x[3,11] + 2476 x[3,12] + 1321 x[4,1] + 1316 x[4,2]
   + 2746 x[4,3] + 1578 x[4,5] + 1369 x[4,6] + 2539 x[4,7] + 276 x[4,8]
   + 2594 x[4,9] + 2254 x[4,10] + 2107 x[4,11] + 1675 x[4,12] + 274 x[5,1]
   + 2366 x[5,2] + 1535 x[5,3] + 1581 x[5,4] + 2844 x[5,6] + 2173 x[5,7]
   + 1299 x[5,8] + 2453 x[5,9] + 865 x[5,10] + 1508 x[5,11] + 1076 x[5,12]
   + 2635 x[6,1] + 1043 x[6,2] + 3849 x[6,3] + 1375 x[6,4] + 2910 x[6,5]
   + 3190 x[6,7] + 1636 x[6,8] + 2938 x[6,9] + 3479 x[6,10] + 2844 x[6,11]
   + 2973 x[6,12] + 2150 x[7,1] + 2200 x[7,2] + 1503 x[7,3] + 2517 x[7,4]
   + 2164 x[7,5] + 3130 x[7,6] + 2490 x[7,8] + 602 x[7,9] + 1821 x[7,10]
   + 706 x[7,11] + 3126 x[7,12] + 1106 x[8,1] + 1462 x[8,2] + 2629 x[8,3]
   + 230 x[8,4] + 1350 x[8,5] + 1659 x[8,6] + 2497 x[8,7] + 2511 x[8,9]
   + 2095 x[8,10] + 1918 x[8,11] + 1479 x[8,12] + 2415 x[9,1] + 1843 x[9,2]
   + 2023 x[9,3] + 2502 x[9,4] + 2443 x[9,5] + 2938 x[9,6] + 543 x[9,7]
   + 2470 x[9,8] + 2235 x[9,10] + 1073 x[9,11] + 3382 x[9,12]
   + 1011 x[10,1] + 2786 x[10,2] + 752 x[10,3] + 2205 x[10,4] + 897 x[10,5]
   + 3493 x[10,6] + 1849 x[10,7] + 2089 x[10,8] + 2283 x[10,9]
   + 1309 x[10,11] + 1764 x[10,12] + 1466 x[11,1] + 1932 x[11,2]
   + 1230 x[11,3] + 2047 x[11,4] + 1504 x[11,5] + 2832 x[11,6]
   + 643 x[11,7] + 1918 x[11,8] + 1037 x[11,9] + 1246 x[11,10]
   + 2474 x[11,12] + 1094 x[12,1] + 2822 x[12,2] + 2438 x[12,3]
   + 1663 x[12,4] + 1040 x[12,5] + 3022 x[12,6] + 3170 x[12,7]
   + 1403 x[12,8] + 3346 x[12,9] + 1752 x[12,10] + 2453 x[12,11] + 0 u[1]
Subject To
 FS[1]: x[1,2] + x[1,3] + x[1,4] + x[1,5] + x[1,6] + x[1,7] + x[1,8]
   + x[1,9] + x[1,10] + x[1,11] + x[1,12] = 1
 FS[2]: x[2,1] + x[2,3] + x[2,4] + x[2,5] + x[2,6] + x[2,7] + x[2,8]
   + x[2,9] + x[2,10] + x[2,11] + x[2,12] = 1
 FS[3]: x[3,1] + x[3,2] + x[3,4] + x[3,5] + x[3,6] + x[3,7] + x[3,8]
   + x[3,9] + x[3,10] + x[3,11] + x[3,12] = 1
 FS[4]: x[4,1] + x[4,2] + x[4,3] + x[4,5] + x[4,6] + x[4,7] + x[4,8]
   + x[4,9] + x[4,10] + x[4,11] + x[4,12] = 1
 FS[5]: x[5,1] + x[5,2] + x[5,3] + x[5,4] + x[5,6] + x[5,7] + x[5,8]
   + x[5,9] + x[5,10] + x[5,11] + x[5,12] = 1
 FS[6]: x[6,1] + x[6,2] + x[6,3] + x[6,4] + x[6,5] + x[6,7] + x[6,8]
   + x[6,9] + x[6,10] + x[6,11] + x[6,12] = 1
 FS[7]: x[7,1] + x[7,2] + x[7,3] + x[7,4] + x[7,5] + x[7,6] + x[7,8]
   + x[7,9] + x[7,10] + x[7,11] + x[7,12] = 1
 FS[8]: x[8,1] + x[8,2] + x[8,3] + x[8,4] + x[8,5] + x[8,6] + x[8,7]
   + x[8,9] + x[8,10] + x[8,11] + x[8,12] = 1
 FS[9]: x[9,1] + x[9,2] + x[9,3] + x[9,4] + x[9,5] + x[9,6] + x[9,7]
   + x[9,8] + x[9,10] + x[9,11] + x[9,12] = 1
 FS[10]: x[10,1] + x[10,2] + x[10,3] + x[10,4] + x[10,5] + x[10,6]
   + x[10,7] + x[10,8] + x[10,9] + x[10,11] + x[10,12] = 1
 FS[11]: x[11,1] + x[11,2] + x[11,3] + x[11,4] + x[11,5] + x[11,6]
   + x[11,7] + x[11,8] + x[11,9] + x[11,10] + x[11,12] = 1
 FS[12]: x[12,1] + x[12,2] + x[12,3] + x[12,4] + x[12,5] + x[12,6]
   + x[12,7] + x[12,8] + x[12,9] + x[12,10] + x[12,11] = 1
 RS[1]: x[2,1] + x[3,1] + x[4,1] + x[5,1] + x[6,1] + x[7,1] + x[8,1]
   + x[9,1] + x[10,1] + x[11,1] + x[12,1] = 1
 RS[2]: x[1,2] + x[3,2] + x[4,2] + x[5,2] + x[6,2] + x[7,2] + x[8,2]
   + x[9,2] + x[10,2] + x[11,2] + x[12,2] = 1
 RS[3]: x[1,3] + x[2,3] + x[4,3] + x[5,3] + x[6,3] + x[7,3] + x[8,3]
   + x[9,3] + x[10,3] + x[11,3] + x[12,3] = 1
 RS[4]: x[1,4] + x[2,4] + x[3,4] + x[5,4] + x[6,4] + x[7,4] + x[8,4]
   + x[9,4] + x[10,4] + x[11,4] + x[12,4] = 1
 RS[5]: x[1,5] + x[2,5] + x[3,5] + x[4,5] + x[6,5] + x[7,5] + x[8,5]
   + x[9,5] + x[10,5] + x[11,5] + x[12,5] = 1
 RS[6]: x[1,6] + x[2,6] + x[3,6] + x[4,6] + x[5,6] + x[7,6] + x[8,6]
   + x[9,6] + x[10,6] + x[11,6] + x[12,6] = 1
 RS[7]: x[1,7] + x[2,7] + x[3,7] + x[4,7] + x[5,7] + x[6,7] + x[8,7]
   + x[9,7] + x[10,7] + x[11,7] + x[12,7] = 1
 RS[8]: x[1,8] + x[2,8] + x[3,8] + x[4,8] + x[5,8] + x[6,8] + x[7,8]
   + x[9,8] + x[10,8] + x[11,8] + x[12,8] = 1
 RS[9]: x[1,9] + x[2,9] + x[3,9] + x[4,9] + x[5,9] + x[6,9] + x[7,9]
   + x[8,9] + x[10,9] + x[11,9] + x[12,9] = 1
 RS[10]: x[1,10] + x[2,10] + x[3,10] + x[4,10] + x[5,10] + x[6,10]
   + x[7,10] + x[8,10] + x[9,10] + x[11,10] + x[12,10] = 1
 RS[11]: x[1,11] + x[2,11] + x[3,11] + x[4,11] + x[5,11] + x[6,11]
   + x[7,11] + x[8,11] + x[9,11] + x[10,11] + x[12,11] = 1
 RS[12]: x[1,12] + x[2,12] + x[3,12] + x[4,12] + x[5,12] + x[6,12]
   + x[7,12] + x[8,12] + x[9,12] + x[10,12] + x[11,12] = 1
 SEC2[1,2]: x[1,2] + x[2,1] <= 1
 SEC2[1,3]: x[1,3] + x[3,1] <= 1
 SEC2[1,4]: x[1,4] + x[4,1] <= 1
 SEC2[1,5]: x[1,5] + x[5,1] <= 1
 SEC2[1,6]: x[1,6] + x[6,1] <= 1
 SEC2[1,7]: x[1,7] + x[7,1] <= 1
 SEC2[1,8]: x[1,8] + x[8,1] <= 1
 SEC2[1,9]: x[1,9] + x[9,1] <= 1
 SEC2[1,10]: x[1,10] + x[10,1] <= 1
 SEC2[1,11]: x[1,11] + x[11,1] <= 1
 SEC2[1,12]: x[1,12] + x[12,1] <= 1
 SEC2[2,3]: x[2,3] + x[3,2] <= 1
 SEC2[2,4]: x[2,4] + x[4,2] <= 1
 SEC2[2,5]: x[2,5] + x[5,2] <= 1
 SEC2[2,6]: x[2,6] + x[6,2] <= 1
 SEC2[2,7]: x[2,7] + x[7,2] <= 1
 SEC2[2,8]: x[2,8] + x[8,2] <= 1
 SEC2[2,9]: x[2,9] + x[9,2] <= 1
 SEC2[2,10]: x[2,10] + x[10,2] <= 1
 SEC2[2,11]: x[2,11] + x[11,2] <= 1
 SEC2[2,12]: x[2,12] + x[12,2] <= 1
 SEC2[3,4]: x[3,4] + x[4,3] <= 1
 SEC2[3,5]: x[3,5] + x[5,3] <= 1
 SEC2[3,6]: x[3,6] + x[6,3] <= 1
 SEC2[3,7]: x[3,7] + x[7,3] <= 1
 SEC2[3,8]: x[3,8] + x[8,3] <= 1
 SEC2[3,9]: x[3,9] + x[9,3] <= 1
 SEC2[3,10]: x[3,10] + x[10,3] <= 1
 SEC2[3,11]: x[3,11] + x[11,3] <= 1
 SEC2[3,12]: x[3,12] + x[12,3] <= 1
 SEC2[4,5]: x[4,5] + x[5,4] <= 1
 SEC2[4,6]: x[4,6] + x[6,4] <= 1
 SEC2[4,7]: x[4,7] + x[7,4] <= 1
 SEC2[4,8]: x[4,8] + x[8,4] <= 1
 SEC2[4,9]: x[4,9] + x[9,4] <= 1
 SEC2[4,10]: x[4,10] + x[10,4] <= 1
 SEC2[4,11]: x[4,11] + x[11,4] <= 1
 SEC2[4,12]: x[4,12] + x[12,4] <= 1
 SEC2[5,6]: x[5,6] + x[6,5] <= 1
 SEC2[5,7]: x[5,7] + x[7,5] <= 1
 SEC2[5,8]: x[5,8] + x[8,5] <= 1
 SEC2[5,9]: x[5,9] + x[9,5] <= 1
 SEC2[5,10]: x[5,10] + x[10,5] <= 1
 SEC2[5,11]: x[5,11] + x[11,5] <= 1
 SEC2[5,12]: x[5,12] + x[12,5] <= 1
 SEC2[6,7]: x[6,7] + x[7,6] <= 1
 SEC2[6,8]: x[6,8] + x[8,6] <= 1
 SEC2[6,9]: x[6,9] + x[9,6] <= 1
 SEC2[6,10]: x[6,10] + x[10,6] <= 1
 SEC2[6,11]: x[6,11] + x[11,6] <= 1
 SEC2[6,12]: x[6,12] + x[12,6] <= 1
 SEC2[7,8]: x[7,8] + x[8,7] <= 1
 SEC2[7,9]: x[7,9] + x[9,7] <= 1
 SEC2[7,10]: x[7,10] + x[10,7] <= 1
 SEC2[7,11]: x[7,11] + x[11,7] <= 1
 SEC2[7,12]: x[7,12] + x[12,7] <= 1
 SEC2[8,9]: x[8,9] + x[9,8] <= 1
 SEC2[8,10]: x[8,10] + x[10,8] <= 1
 SEC2[8,11]: x[8,11] + x[11,8] <= 1
 SEC2[8,12]: x[8,12] + x[12,8] <= 1
 SEC2[9,10]: x[9,10] + x[10,9] <= 1
 SEC2[9,11]: x[9,11] + x[11,9] <= 1
 SEC2[9,12]: x[9,12] + x[12,9] <= 1
 SEC2[10,11]: x[10,11] + x[11,10] <= 1
 SEC2[10,12]: x[10,12] + x[12,10] <= 1
 SEC2[11,12]: x[11,12] + x[12,11] <= 1
 MTZ[2,3]: 11 x[2,3] + 9 x[3,2] + u[2] - u[3] <= 10
 MTZ[2,4]: 11 x[2,4] + 9 x[4,2] + u[2] - u[4] <= 10
 MTZ[2,5]: 11 x[2,5] + 9 x[5,2] + u[2] - u[5] <= 10
 MTZ[2,6]: 11 x[2,6] + 9 x[6,2] + u[2] - u[6] <= 10
 MTZ[2,7]: 11 x[2,7] + 9 x[7,2] + u[2] - u[7] <= 10
 MTZ[2,8]: 11 x[2,8] + 9 x[8,2] + u[2] - u[8] <= 10
 MTZ[2,9]: 11 x[2,9] + 9 x[9,2] + u[2] - u[9] <= 10
 MTZ[2,10]: 11 x[2,10] + 9 x[10,2] + u[2] - u[10] <= 10
 MTZ[2,11]: 11 x[2,11] + 9 x[11,2] + u[2] - u[11] <= 10
 MTZ[2,12]: 11 x[2,12] + 9 x[12,2] + u[2] - u[12] <= 10
 MTZ[3,2]: 9 x[2,3] + 11 x[3,2] - u[2] + u[3] <= 10
 MTZ[3,4]: 11 x[3,4] + 9 x[4,3] + u[3] - u[4] <= 10
 MTZ[3,5]: 11 x[3,5] + 9 x[5,3] + u[3] - u[5] <= 10
 MTZ[3,6]: 11 x[3,6] + 9 x[6,3] + u[3] - u[6] <= 10
 MTZ[3,7]: 11 x[3,7] + 9 x[7,3] + u[3] - u[7] <= 10
 MTZ[3,8]: 11 x[3,8] + 9 x[8,3] + u[3] - u[8] <= 10
 MTZ[3,9]: 11 x[3,9] + 9 x[9,3] + u[3] - u[9] <= 10
 MTZ[3,10]: 11 x[3,10] + 9 x[10,3] + u[3] - u[10] <= 10
 MTZ[3,11]: 11 x[3,11] + 9 x[11,3] + u[3] - u[11] <= 10
 MTZ[3,12]: 11 x[3,12] + 9 x[12,3] + u[3] - u[12] <= 10
 MTZ[4,2]: 9 x[2,4] + 11 x[4,2] - u[2] + u[4] <= 10
 MTZ[4,3]: 9 x[3,4] + 11 x[4,3] - u[3] + u[4] <= 10
 MTZ[4,5]: 11 x[4,5] + 9 x[5,4] + u[4] - u[5] <= 10
 MTZ[4,6]: 11 x[4,6] + 9 x[6,4] + u[4] - u[6] <= 10
 MTZ[4,7]: 11 x[4,7] + 9 x[7,4] + u[4] - u[7] <= 10
 MTZ[4,8]: 11 x[4,8] + 9 x[8,4] + u[4] - u[8] <= 10
 MTZ[4,9]: 11 x[4,9] + 9 x[9,4] + u[4] - u[9] <= 10
 MTZ[4,10]: 11 x[4,10] + 9 x[10,4] + u[4] - u[10] <= 10
 MTZ[4,11]: 11 x[4,11] + 9 x[11,4] + u[4] - u[11] <= 10
 MTZ[4,12]: 11 x[4,12] + 9 x[12,4] + u[4] - u[12] <= 10
 MTZ[5,2]: 9 x[2,5] + 11 x[5,2] - u[2] + u[5] <= 10
 MTZ[5,3]: 9 x[3,5] + 11 x[5,3] - u[3] + u[5] <= 10
 MTZ[5,4]: 9 x[4,5] + 11 x[5,4] - u[4] + u[5] <= 10
 MTZ[5,6]: 11 x[5,6] + 9 x[6,5] + u[5] - u[6] <= 10
 MTZ[5,7]: 11 x[5,7] + 9 x[7,5] + u[5] - u[7] <= 10
 MTZ[5,8]: 11 x[5,8] + 9 x[8,5] + u[5] - u[8] <= 10
 MTZ[5,9]: 11 x[5,9] + 9 x[9,5] + u[5] - u[9] <= 10
 MTZ[5,10]: 11 x[5,10] + 9 x[10,5] + u[5] - u[10] <= 10
 MTZ[5,11]: 11 x[5,11] + 9 x[11,5] + u[5] - u[11] <= 10
 MTZ[5,12]: 11 x[5,12] + 9 x[12,5] + u[5] - u[12] <= 10
 MTZ[6,2]: 9 x[2,6] + 11 x[6,2] - u[2] + u[6] <= 10
 MTZ[6,3]: 9 x[3,6] + 11 x[6,3] - u[3] + u[6] <= 10
 MTZ[6,4]: 9 x[4,6] + 11 x[6,4] - u[4] + u[6] <= 10
 MTZ[6,5]: 9 x[5,6] + 11 x[6,5] - u[5] + u[6] <= 10
 MTZ[6,7]: 11 x[6,7] + 9 x[7,6] + u[6] - u[7] <= 10
 MTZ[6,8]: 11 x[6,8] + 9 x[8,6] + u[6] - u[8] <= 10
 MTZ[6,9]: 11 x[6,9] + 9 x[9,6] + u[6] - u[9] <= 10
 MTZ[6,10]: 11 x[6,10] + 9 x[10,6] + u[6] - u[10] <= 10
 MTZ[6,11]: 11 x[6,11] + 9 x[11,6] + u[6] - u[11] <= 10
 MTZ[6,12]: 11 x[6,12] + 9 x[12,6] + u[6] - u[12] <= 10
 MTZ[7,2]: 9 x[2,7] + 11 x[7,2] - u[2] + u[7] <= 10
 MTZ[7,3]: 9 x[3,7] + 11 x[7,3] - u[3] + u[7] <= 10
 MTZ[7,4]: 9 x[4,7] + 11 x[7,4] - u[4] + u[7] <= 10
 MTZ[7,5]: 9 x[5,7] + 11 x[7,5] - u[5] + u[7] <= 10
 MTZ[7,6]: 9 x[6,7] + 11 x[7,6] - u[6] + u[7] <= 10
 MTZ[7,8]: 11 x[7,8] + 9 x[8,7] + u[7] - u[8] <= 10
 MTZ[7,9]: 11 x[7,9] + 9 x[9,7] + u[7] - u[9] <= 10
 MTZ[7,10]: 11 x[7,10] + 9 x[10,7] + u[7] - u[10] <= 10
 MTZ[7,11]: 11 x[7,11] + 9 x[11,7] + u[7] - u[11] <= 10
 MTZ[7,12]: 11 x[7,12] + 9 x[12,7] + u[7] - u[12] <= 10
 MTZ[8,2]: 9 x[2,8] + 11 x[8,2] - u[2] + u[8] <= 10
 MTZ[8,3]: 9 x[3,8] + 11 x[8,3] - u[3] + u[8] <= 10
 MTZ[8,4]: 9 x[4,8] + 11 x[8,4] - u[4] + u[8] <= 10
 MTZ[8,5]: 9 x[5,8] + 11 x[8,5] - u[5] + u[8] <= 10
 MTZ[8,6]: 9 x[6,8] + 11 x[8,6] - u[6] + u[8] <= 10
 MTZ[8,7]: 9 x[7,8] + 11 x[8,7] - u[7] + u[8] <= 10
 MTZ[8,9]: 11 x[8,9] + 9 x[9,8] + u[8] - u[9] <= 10
 MTZ[8,10]: 11 x[8,10] + 9 x[10,8] + u[8] - u[10] <= 10
 MTZ[8,11]: 11 x[8,11] + 9 x[11,8] + u[8] - u[11] <= 10
 MTZ[8,12]: 11 x[8,12] + 9 x[12,8] + u[8] - u[12] <= 10
 MTZ[9,2]: 9 x[2,9] + 11 x[9,2] - u[2] + u[9] <= 10
 MTZ[9,3]: 9 x[3,9] + 11 x[9,3] - u[3] + u[9] <= 10
 MTZ[9,4]: 9 x[4,9] + 11 x[9,4] - u[4] + u[9] <= 10
 MTZ[9,5]: 9 x[5,9] + 11 x[9,5] - u[5] + u[9] <= 10
 MTZ[9,6]: 9 x[6,9] + 11 x[9,6] - u[6] + u[9] <= 10
 MTZ[9,7]: 9 x[7,9] + 11 x[9,7] - u[7] + u[9] <= 10
 MTZ[9,8]: 9 x[8,9] + 11 x[9,8] - u[8] + u[9] <= 10
 MTZ[9,10]: 11 x[9,10] + 9 x[10,9] + u[9] - u[10] <= 10
 MTZ[9,11]: 11 x[9,11] + 9 x[11,9] + u[9] - u[11] <= 10
 MTZ[9,12]: 11 x[9,12] + 9 x[12,9] + u[9] - u[12] <= 10
 MTZ[10,2]: 9 x[2,10] + 11 x[10,2] - u[2] + u[10] <= 10
 MTZ[10,3]: 9 x[3,10] + 11 x[10,3] - u[3] + u[10] <= 10
 MTZ[10,4]: 9 x[4,10] + 11 x[10,4] - u[4] + u[10] <= 10
 MTZ[10,5]: 9 x[5,10] + 11 x[10,5] - u[5] + u[10] <= 10
 MTZ[10,6]: 9 x[6,10] + 11 x[10,6] - u[6] + u[10] <= 10
 MTZ[10,7]: 9 x[7,10] + 11 x[10,7] - u[7] + u[10] <= 10
 MTZ[10,8]: 9 x[8,10] + 11 x[10,8] - u[8] + u[10] <= 10
 MTZ[10,9]: 9 x[9,10] + 11 x[10,9] - u[9] + u[10] <= 10
 MTZ[10,11]: 11 x[10,11] + 9 x[11,10] + u[10] - u[11] <= 10
 MTZ[10,12]: 11 x[10,12] + 9 x[12,10] + u[10] - u[12] <= 10
 MTZ[11,2]: 9 x[2,11] + 11 x[11,2] - u[2] + u[11] <= 10
 MTZ[11,3]: 9 x[3,11] + 11 x[11,3] - u[3] + u[11] <= 10
 MTZ[11,4]: 9 x[4,11] + 11 x[11,4] - u[4] + u[11] <= 10
 MTZ[11,5]: 9 x[5,11] + 11 x[11,5] - u[5] + u[11] <= 10
 MTZ[11,6]: 9 x[6,11] + 11 x[11,6] - u[6] + u[11] <= 10
 MTZ[11,7]: 9 x[7,11] + 11 x[11,7] - u[7] + u[11] <= 10
 MTZ[11,8]: 9 x[8,11] + 11 x[11,8] - u[8] + u[11] <= 10
 MTZ[11,9]: 9 x[9,11] + 11 x[11,9] - u[9] + u[11] <= 10
 MTZ[11,10]: 9 x[10,11] + 11 x[11,10] - u[10] + u[11] <= 10
 MTZ[11,12]: 11 x[11,12] + 9 x[12,11] + u[11] - u[12] <= 10
 MTZ[12,2]: 9 x[2,12] + 11 x[12,2] - u[2] + u[12] <= 10
 MTZ[12,3]: 9 x[3,12] + 11 x[12,3] - u[3] + u[12] <= 10
 MTZ[12,4]: 9 x[4,12] + 11 x[12,4] - u[4] + u[12] <= 10
 MTZ[12,5]: 9 x[5,12] + 11 x[12,5] - u[5] + u[12] <= 10
 MTZ[12,6]: 9 x[6,12] + 11 x[12,6] - u[6] + u[12] <= 10
 MTZ[12,7]: 9 x[7,12] + 11 x[12,7] - u[7] + u[12] <= 10
 MTZ[12,8]: 9 x[8,12] + 11 x[12,8] - u[8] + u[12] <= 10
 MTZ[12,9]: 9 x[9,12] + 11 x[12,9] - u[9] + u[12] <= 10
 MTZ[12,10]: 9 x[10,12] + 11 x[12,10] - u[10] + u[12] <= 10
 MTZ[12,11]: 9 x[11,12] + 11 x[12,11] - u[11] + u[12] <= 10
Bounds
 u[1] = 1
 2 <= u[2] <= 12
 2 <= u[3] <= 12
 2 <= u[4] <= 12
 2 <= u[5] <= 12
 2 <= u[6] <= 12
 2 <= u[7] <= 12
 2 <= u[8] <= 12
 2 <= u[9] <= 12
 2 <= u[10] <= 12
 2 <= u[11] <= 12
 2 <= u[12] <= 12
Binaries
 x[1,2] x[1,3] x[1,4] x[1,5] x[1,6] x[1,7] x[1,8] x[1,9] x[1,10] x[1,11]
 x[1,12] x[2,1] x[2,3] x[2,4] x[2,5] x[2,6] x[2,7] x[2,8] x[2,9] x[2,10]
 x[2,11] x[2,12] x[3,1] x[3,2] x[3,4] x[3,5] x[3,6] x[3,7] x[3,8] x[3,9]
 x[3,10] x[3,11] x[3,12] x[4,1] x[4,2] x[4,3] x[4,5] x[4,6] x[4,7] x[4,8]
 x[4,9] x[4,10] x[4,11] x[4,12] x[5,1] x[5,2] x[5,3] x[5,4] x[5,6] x[5,7]
 x[5,8] x[5,9] x[5,10] x[5,11] x[5,12] x[6,1] x[6,2] x[6,3] x[6,4] x[6,5]
 x[6,7] x[6,8] x[6,9] x[6,10] x[6,11] x[6,12] x[7,1] x[7,2] x[7,3] x[7,4]
 x[7,5] x[7,6] x[7,8] x[7,9] x[7,10] x[7,11] x[7,12] x[8,1] x[8,2] x[8,3]
 x[8,4] x[8,5] x[8,6] x[8,7] x[8,9] x[8,10] x[8,11] x[8,12] x[9,1] x[9,2]
 x[9,3] x[9,4] x[9,5] x[9,6] x[9,7] x[9,8] x[9,10] x[9,11] x[9,12] x[10,1]
 x[10,2] x[10,3] x[10,4] x[10,5] x[10,6] x[10,7] x[10,8] x[10,9] x[10,11]
 x[10,12] x[11,1] x[11,2] x[11,3] x[11,4] x[11,5] x[11,6] x[11,7] x[11,8]
 x[11,9] x[11,10] x[11,12] x[12,1] x[12,2] x[12,3] x[12,4] x[12,5] x[12,6]
 x[12,7] x[12,8] x[12,9] x[12,10] x[12,11]
End
